p cnf 7230 16
-863 -1155 1156 0
-861 -1152 1153 0
-793 -891 1150 0
-865 -1147 1148 0
863 -1157 0
861 -1154 0
793 -1151 0
865 -1149 0
-1156 1157 0
-1153 1154 0
-1150 1151 0
-1148 1149 0
1155 -1157 0
1152 -1154 0
891 -1151 0
1147 -1149 0
